instances/shortest_path/discrete_knapsack_uncertainty/nohadani_5_3.lp
\ Model nohadani_5_3
\ LP format - for model browsing. Use MPS format to capture full model detail.
\ Signature: 0xa1d49c5c4aa7c587
Minimize
  58.83026432033091 y[0,2] + 48.70318264754368 y[0,3]
   + 17.46424919657298 y[0,4] + 30 y[1,2] + 37.16180835212409 y[1,3]
   + 58.83026432033091 y[2,0] + 30 y[2,1] + 37.16180835212409 y[2,3]
   + 76.15773105863909 y[2,4] + 48.70318264754368 y[3,0]
   + 37.16180835212409 y[3,1] + 37.16180835212409 y[3,2]
   + 61.91122676865643 y[3,4] + 17.46424919657298 y[4,0]
   + 76.15773105863909 y[4,2] + 61.91122676865643 y[4,3] + x[0,2] + x[0,3]
   + x[0,4] + x[1,2] + x[1,3] + x[2,0] + x[2,1] + x[2,3] + x[2,4] + x[3,0]
   + x[3,1] + x[3,2] + x[3,4] + x[4,0] + x[4,2] + x[4,3]
   + 5.883026432033091 r[0,2] + 4.870318264754369 r[0,3]
   + 1.746424919657298 r[0,4] + 3 r[1,2] + 3.716180835212409 r[1,3]
   + 5.883026432033091 r[2,0] + 3 r[2,1] + 3.716180835212409 r[2,3]
   + 7.615773105863909 r[2,4] + 4.870318264754369 r[3,0]
   + 3.716180835212409 r[3,1] + 3.716180835212409 r[3,2]
   + 6.191122676865643 r[3,4] + 1.746424919657298 r[4,0]
   + 7.615773105863909 r[4,2] + 6.191122676865643 r[4,3]
Subject To
 flow_cons_inner_nodes[0]: - y[0,2] - y[0,3] - y[0,4] + y[2,0] + y[3,0]
   + y[4,0] = 0
 flow_cons_inner_nodes[2]: y[0,2] + y[1,2] - y[2,0] - y[2,1] - y[2,3]
   - y[2,4] + y[3,2] + y[4,2] = 0
 flow_cons_inner_nodes[3]: y[0,3] + y[1,3] + y[2,3] - y[3,0] - y[3,1]
   - y[3,2] - y[3,4] + y[4,3] = 0
 flow_cons_source: y[1,2] + y[1,3] - y[2,1] - y[3,1] = 1
 flow_cons_target: y[0,4] + y[2,4] + y[3,4] - y[4,0] - y[4,2] - y[4,3] = 1
 primal_lower: 3.539622071084584 x[0,2] + 2.371448322746581 x[0,3]
   + 3.759876063002934 x[0,4] + 1.853164319720284 x[1,2]
   + 4.692876768019486 x[1,3] + 3.422282748457361 x[2,0]
   + 4.942082971108568 x[2,1] + 0.9345406162036524 x[2,3]
   + 3.351262153027431 x[2,4] + 3.387028314582715 x[3,0]
   + 0.8545078049378041 x[3,1] + 4.445144761205787 x[3,2]
   + 1.01499353278661 x[3,4] + 3.198539649505951 x[4,0]
   + 1.374669295602373 x[4,2] + 5.511940801279751 x[4,3] + 11 u[0,2]
   + 35 u[0,3] + 57 u[0,4] + 74 u[1,2] + 71 u[1,3] + 89 u[2,0] + 76 u[2,1]
   + 23 u[2,3] + 80 u[2,4] + 13 u[3,0] + 23 u[3,1] + 98 u[3,2] + 47 u[3,4]
   + 23 u[4,0] + 100 u[4,2] + 8 u[4,3] <= 100
 mccormick1[0,2]: - u[0,2] + r[0,2] <= 0
 mccormick1[0,3]: - u[0,3] + r[0,3] <= 0
 mccormick1[0,4]: - u[0,4] + r[0,4] <= 0
 mccormick1[1,2]: - u[1,2] + r[1,2] <= 0
 mccormick1[1,3]: - u[1,3] + r[1,3] <= 0
 mccormick1[2,0]: - u[2,0] + r[2,0] <= 0
 mccormick1[2,1]: - u[2,1] + r[2,1] <= 0
 mccormick1[2,3]: - u[2,3] + r[2,3] <= 0
 mccormick1[2,4]: - u[2,4] + r[2,4] <= 0
 mccormick1[3,0]: - u[3,0] + r[3,0] <= 0
 mccormick1[3,1]: - u[3,1] + r[3,1] <= 0
 mccormick1[3,2]: - u[3,2] + r[3,2] <= 0
 mccormick1[3,4]: - u[3,4] + r[3,4] <= 0
 mccormick1[4,0]: - u[4,0] + r[4,0] <= 0
 mccormick1[4,2]: - u[4,2] + r[4,2] <= 0
 mccormick1[4,3]: - u[4,3] + r[4,3] <= 0
 mccormick2[0,2]: - y[0,2] + r[0,2] <= 0
 mccormick2[0,3]: - y[0,3] + r[0,3] <= 0
 mccormick2[0,4]: - y[0,4] + r[0,4] <= 0
 mccormick2[1,2]: - y[1,2] + r[1,2] <= 0
 mccormick2[1,3]: - y[1,3] + r[1,3] <= 0
 mccormick2[2,0]: - y[2,0] + r[2,0] <= 0
 mccormick2[2,1]: - y[2,1] + r[2,1] <= 0
 mccormick2[2,3]: - y[2,3] + r[2,3] <= 0
 mccormick2[2,4]: - y[2,4] + r[2,4] <= 0
 mccormick2[3,0]: - y[3,0] + r[3,0] <= 0
 mccormick2[3,1]: - y[3,1] + r[3,1] <= 0
 mccormick2[3,2]: - y[3,2] + r[3,2] <= 0
 mccormick2[3,4]: - y[3,4] + r[3,4] <= 0
 mccormick2[4,0]: - y[4,0] + r[4,0] <= 0
 mccormick2[4,2]: - y[4,2] + r[4,2] <= 0
 mccormick2[4,3]: - y[4,3] + r[4,3] <= 0
 mccormick3[0,2]: - y[0,2] - u[0,2] + r[0,2] >= -1
 mccormick3[0,3]: - y[0,3] - u[0,3] + r[0,3] >= -1
 mccormick3[0,4]: - y[0,4] - u[0,4] + r[0,4] >= -1
 mccormick3[1,2]: - y[1,2] - u[1,2] + r[1,2] >= -1
 mccormick3[1,3]: - y[1,3] - u[1,3] + r[1,3] >= -1
 mccormick3[2,0]: - y[2,0] - u[2,0] + r[2,0] >= -1
 mccormick3[2,1]: - y[2,1] - u[2,1] + r[2,1] >= -1
 mccormick3[2,3]: - y[2,3] - u[2,3] + r[2,3] >= -1
 mccormick3[2,4]: - y[2,4] - u[2,4] + r[2,4] >= -1
 mccormick3[3,0]: - y[3,0] - u[3,0] + r[3,0] >= -1
 mccormick3[3,1]: - y[3,1] - u[3,1] + r[3,1] >= -1
 mccormick3[3,2]: - y[3,2] - u[3,2] + r[3,2] >= -1
 mccormick3[3,4]: - y[3,4] - u[3,4] + r[3,4] >= -1
 mccormick3[4,0]: - y[4,0] - u[4,0] + r[4,0] >= -1
 mccormick3[4,2]: - y[4,2] - u[4,2] + r[4,2] >= -1
 mccormick3[4,3]: - y[4,3] - u[4,3] + r[4,3] >= -1
Bounds
Binaries
 y[0,2] y[0,3] y[0,4] y[1,2] y[1,3] y[2,0] y[2,1] y[2,3] y[2,4] y[3,0]
 y[3,1] y[3,2] y[3,4] y[4,0] y[4,2] y[4,3] x[0,2] x[0,3] x[0,4] x[1,2]
 x[1,3] x[2,0] x[2,1] x[2,3] x[2,4] x[3,0] x[3,1] x[3,2] x[3,4] x[4,0]
 x[4,2] x[4,3] u[0,2] u[0,3] u[0,4] u[1,2] u[1,3] u[2,0] u[2,1] u[2,3]
 u[2,4] u[3,0] u[3,1] u[3,2] u[3,4] u[4,0] u[4,2] u[4,3] r[0,2] r[0,3]
 r[0,4] r[1,2] r[1,3] r[2,0] r[2,1] r[2,3] r[2,4] r[3,0] r[3,1] r[3,2]
 r[3,4] r[4,0] r[4,2] r[4,3]
End
