instances/shortest_path/discrete_knapsack_uncertainty/nohadani_5_3.kp
67008
100

[3.5396220710845845 2.3714483227465806 3.759876063002934 1.8531643197202838 4.692876768019486 3.4222827484573606 4.942082971108568 0.9345406162036524 3.351262153027431 3.387028314582715 0.8545078049378041 4.445144761205787 1.0149935327866095 3.1985396495059515 1.374669295602373 5.511940801279751]

[11 35 57 74 71 89 76 23 80 13 23 98 47 23 100 8]
